NAME = { John, Bill, Sue, Anna, Steven };
available_funds = [ 7, 6, 5, 4, 5 ];

INGREDIENT = { egg, flour, butter, vanilla, chocolate, sugar, electricity };
ingredient_costs = [ 1, 1, 2, 2, 1, 1.5, 2 ];
required_ingredient_quantities = [ 4, 3, 3, 1, 3, 2, 1 ];

matching_requirement = [ none, none, partial, none, full];

fund_upper_bounds = [| 0, 7, 2, 7, 7, 7, 0
                     | 0, 0, 0, 6, 6, 0, 0
                     | 5, 0, 5, 0, 0, 5, 0
                     | 4, 4, 4, 4, 4, 0, 4
                     | 5, 0, 5, 5, 5, 5, 5 |];